p cnf 37 110
-3 -11 0
-3 -32 0
-3 -31 0
-3 -30 0
-3 -27 0
-3 -14 0
-3 -33 0
-3 -9 0
-3 -10 0
-3 -22 0
-3 -34 0
-3 -20 0
-3 -7 0
-3 -35 0
-3 -25 0
-3 -36 0
-3 -19 0
-3 -15 0
-5 -24 0

